output/x2.lp
Minimize
 obj: 1 x_17_1 + 1 x_20_1 + 2 x_20_2 + 2 x_21_2 + 3 x_21_3 + 1 x_19_1 + 2 x_19_2 + 3 x_19_3 + 1 x_28_1 + 2 x_28_2 + 2 x_12_2 + 3 x_12_3 + 4 x_12_4 + 5 x_12_5 + 2 x_24_2 + 3 x_24_3 + 1 x_22_1 + 2 x_32_2 + 3 x_32_3 + 2 x_26_2 + 3 x_26_3 + 2 x_23_2 + 2 x_18_2 + 3 x_18_3 + 3 x_27_3 + 4 x_27_4 + 4 x_11_4 + 5 x_11_5 + 3 x_25_3 + 4 x_25_4 + 4 x_10_4 + 5 x_10_5 + 3 x_45_3 + 4 x_46_4 + 1 x_38_1 + 2 x_38_2 + 3 x_38_3 + 4 x_38_4 + 3 x_34_3 + 4 x_34_4 + 4 x_14_4 + 5 x_14_5 + 2 x_44_2 + 3 x_44_3 + 4 x_44_4 + 1 x_40_1 + 2 x_47_2 + 2 x_41_2 + 1 x_31_1 + 1 x_30_1 + 1 x_29_1 + 2 x_48_2 + 3 x_49_3 + 4 x_50_4 + 5 x_16_5 + 2 x_39_2 + 3 x_42_3 + 4 x_43_4 + 2 x_35_2 + 3 x_36_3 + 4 x_37_4 + 5 x_15_5 + 3 x_33_3 + 4 x_33_4 + 4 x_13_4 + 5 x_13_5
Subject To
 c1: x_17_1 = 1
 c2: x_20_1 + x_20_2 = 1
 c3: x_21_2 + x_21_3 = 1
 c4: x_19_1 + x_19_2 + x_19_3 = 1
 c5: x_28_1 + x_28_2 = 1
 c6: x_12_2 + x_12_3 + x_12_4 + x_12_5 = 1
 c7: x_24_2 + x_24_3 = 1
 c8: x_22_1 = 1
 c9: x_32_2 + x_32_3 = 1
 c10: x_26_2 + x_26_3 = 1
 c11: x_23_2 = 1
 c12: x_18_2 + x_18_3 = 1
 c13: x_27_3 + x_27_4 = 1
 c14: x_11_4 + x_11_5 = 1
 c15: x_25_3 + x_25_4 = 1
 c16: x_10_4 + x_10_5 = 1
 c17: x_45_3 = 1
 c18: x_46_4 = 1
 c19: x_38_1 + x_38_2 + x_38_3 + x_38_4 = 1
 c20: x_34_3 + x_34_4 = 1
 c21: x_14_4 + x_14_5 = 1
 c22: x_44_2 + x_44_3 + x_44_4 = 1
 c23: x_40_1 = 1
 c24: x_47_2 = 1
 c25: x_41_2 = 1
 c26: x_31_1 = 1
 c27: x_30_1 = 1
 c28: x_29_1 = 1
 c29: x_48_2 = 1
 c30: x_49_3 = 1
 c31: x_50_4 = 1
 c32: x_16_5 = 1
 c33: x_39_2 = 1
 c34: x_42_3 = 1
 c35: x_43_4 = 1
 c36: x_35_2 = 1
 c37: x_36_3 = 1
 c38: x_37_4 = 1
 c39: x_15_5 = 1
 c40: x_33_3 + x_33_4 = 1
 c41: x_13_4 + x_13_5 = 1
 c42: 2 x_12_2 + 3 x_12_3 + 4 x_12_4 + 5 x_12_5 - 1 x_28_1 - 2 x_28_2 >= 1
 c43: 2 x_18_2 + 3 x_18_3 - 1 x_17_1 >= 1
 c44: 2 x_21_2 + 3 x_21_3 - 1 x_17_1 >= 1
 c45: 2 x_21_2 + 3 x_21_3 - 1 x_20_1 - 2 x_20_2 >= 1
 c46: 2 x_24_2 + 3 x_24_3 - 1 x_20_1 - 2 x_20_2 >= 1
 c47: 2 x_26_2 + 3 x_26_3 - 1 x_22_1 >= 1
 c48: 2 x_32_2 + 3 x_32_3 - 1 x_22_1 >= 1
 c49: 2 x_44_2 + 3 x_44_3 + 4 x_44_4 - 1 x_22_1 >= 1
 c50: 3 x_25_3 + 4 x_25_4 - 1 x_19_1 - 2 x_19_2 - 3 x_19_3 >= 1
 c51: 3 x_25_3 + 4 x_25_4 - 2 x_18_2 - 3 x_18_3 >= 1
 c52: 3 x_25_3 + 4 x_25_4 - 2 x_21_2 - 3 x_21_3 >= 1
 c53: 3 x_25_3 + 4 x_25_4 - 2 x_23_2 >= 1
 c54: 3 x_25_3 + 4 x_25_4 - 2 x_24_2 - 3 x_24_3 >= 1
 c55: 3 x_27_3 + 4 x_27_4 - 2 x_18_2 - 3 x_18_3 >= 1
 c56: 3 x_27_3 + 4 x_27_4 - 2 x_21_2 - 3 x_21_3 >= 1
 c57: 3 x_27_3 + 4 x_27_4 - 2 x_24_2 - 3 x_24_3 >= 1
 c58: 3 x_27_3 + 4 x_27_4 - 2 x_26_2 - 3 x_26_3 >= 1
 c59: 3 x_33_3 + 4 x_33_4 - 1 x_28_1 - 2 x_28_2 >= 1
 c60: 3 x_33_3 + 4 x_33_4 - 1 x_29_1 >= 1
 c61: 3 x_33_3 + 4 x_33_4 - 1 x_30_1 >= 1
 c62: 3 x_33_3 + 4 x_33_4 - 1 x_31_1 >= 1
 c63: 3 x_33_3 + 4 x_33_4 - 2 x_18_2 - 3 x_18_3 >= 1
 c64: 3 x_33_3 + 4 x_33_4 - 2 x_21_2 - 3 x_21_3 >= 1
 c65: 3 x_33_3 + 4 x_33_4 - 2 x_23_2 >= 1
 c66: 3 x_33_3 + 4 x_33_4 - 2 x_32_2 - 3 x_32_3 >= 1
 c67: 3 x_34_3 + 4 x_34_4 - 1 x_28_1 - 2 x_28_2 >= 1
 c68: 3 x_34_3 + 4 x_34_4 - 2 x_18_2 - 3 x_18_3 >= 1
 c69: 3 x_34_3 + 4 x_34_4 - 2 x_21_2 - 3 x_21_3 >= 1
 c70: 3 x_34_3 + 4 x_34_4 - 2 x_24_2 - 3 x_24_3 >= 1
 c71: 3 x_45_3 - 1 x_28_1 - 2 x_28_2 >= 1
 c72: 4 x_10_4 + 5 x_10_5 - 3 x_25_3 - 4 x_25_4 >= 1
 c73: 4 x_11_4 + 5 x_11_5 - 3 x_27_3 - 4 x_27_4 >= 1
 c74: 4 x_13_4 + 5 x_13_5 - 3 x_33_3 - 4 x_33_4 >= 1
 c75: 4 x_14_4 + 5 x_14_5 - 3 x_34_3 - 4 x_34_4 >= 1
 c76: 4 x_37_4 - 1 x_20_1 - 2 x_20_2 >= 1
 c77: 5 x_15_5 - 1 x_38_1 - 2 x_38_2 - 3 x_38_3 - 4 x_38_4 >= 1
 c78: 5 x_15_5 - 2 x_44_2 - 3 x_44_3 - 4 x_44_4 >= 1
 c79: 5 x_16_5 - 2 x_44_2 - 3 x_44_3 - 4 x_44_4 >= 1
 c80: x_44_2 + x_47_2 + x_41_2 + x_48_2 + x_39_2 + x_35_2 <= 10
 c81: x_27_3 + x_25_3 + x_45_3 + x_34_3 + x_44_3 + x_33_3 <= 10
 c82: x_27_4 + x_25_4 + x_34_4 + x_44_4 + x_50_4 + x_43_4 + x_37_4 + x_33_4 <= 10
 c83: x_19_1 + x_28_1 <= 10
 c84: x_21_2 + x_19_2 + x_28_2 + x_24_2 + x_32_2 + x_26_2 + x_23_2 + x_18_2 <= 10
 c85: x_21_3 + x_19_3 + x_24_3 + x_32_3 + x_26_3 + x_18_3 + x_49_3 + x_42_3 + x_36_3 <= 10
 c86: x_16_5 + x_15_5 <= 10
 c87: x_17_1 + x_20_1 + x_22_1 + x_38_1 + x_40_1 + x_31_1 + x_30_1 + x_29_1 <= 10
 c88: x_20_2 + x_12_2 + x_38_2 <= 10
 c89: x_12_3 + x_38_3 <= 10
 c90: x_12_4 + x_11_4 + x_10_4 + x_46_4 + x_38_4 + x_14_4 + x_13_4 <= 10
 c91: x_12_5 + x_11_5 + x_10_5 + x_14_5 + x_13_5 <= 10
Binary
 x_17_1
 x_20_1
 x_20_2
 x_21_2
 x_21_3
 x_19_1
 x_19_2
 x_19_3
 x_28_1
 x_28_2
 x_12_2
 x_12_3
 x_12_4
 x_12_5
 x_24_2
 x_24_3
 x_22_1
 x_32_2
 x_32_3
 x_26_2
 x_26_3
 x_23_2
 x_18_2
 x_18_3
 x_27_3
 x_27_4
 x_11_4
 x_11_5
 x_25_3
 x_25_4
 x_10_4
 x_10_5
 x_45_3
 x_46_4
 x_38_1
 x_38_2
 x_38_3
 x_38_4
 x_34_3
 x_34_4
 x_14_4
 x_14_5
 x_44_2
 x_44_3
 x_44_4
 x_40_1
 x_47_2
 x_41_2
 x_31_1
 x_30_1
 x_29_1
 x_48_2
 x_49_3
 x_50_4
 x_16_5
 x_39_2
 x_42_3
 x_43_4
 x_35_2
 x_36_3
 x_37_4
 x_15_5
 x_33_3
 x_33_4
 x_13_4
 x_13_5
End
