output/x2.sol
# Solution for model obj
# Objective value = 102
x_17_1 1
x_20_1 1
x_20_2 0
x_21_2 1
x_21_3 0
x_19_1 1
x_19_2 0
x_19_3 0
x_28_1 1
x_28_2 0
x_12_2 1
x_12_3 0
x_12_4 0
x_12_5 0
x_24_2 1
x_24_3 0
x_22_1 1
x_32_2 1
x_32_3 0
x_26_2 1
x_26_3 0
x_23_2 1
x_18_2 1
x_18_3 0
x_27_3 1
x_27_4 0
x_11_4 1
x_11_5 0
x_25_3 1
x_25_4 0
x_10_4 1
x_10_5 0
x_45_3 1
x_46_4 1
x_38_1 1
x_38_2 0
x_38_3 0
x_38_4 0
x_34_3 1
x_34_4 0
x_14_4 1
x_14_5 0
x_44_2 1
x_44_3 0
x_44_4 0
x_40_1 1
x_47_2 1
x_41_2 1
x_31_1 1
x_30_1 1
x_29_1 1
x_48_2 1
x_49_3 1
x_50_4 1
x_16_5 1
x_39_2 1
x_42_3 1
x_43_4 1
x_35_2 1
x_36_3 1
x_37_4 1
x_15_5 1
x_33_3 1
x_33_4 0
x_13_4 1
x_13_5 0
